<?xml version="1.0" encoding="UTF-8"?><osil xmlns="os.optimizationservices.org"   xmlns:xsi="http://www.w3.org/2001/XMLSchema-instance" xsi:schemaLocation="os.optimizationservices.org http://www.optimizationservices.org/schemas/2.0/OSiL.xsd" ><instanceHeader><name>q_40_0_25_3</name></instanceHeader><instanceData><variables numberOfVariables="40"><var name="x1" ub="1"/><var name="x2" ub="1"/><var name="x3" ub="1"/><var name="x4" ub="1"/><var name="x5" ub="1"/><var name="x6" ub="1"/><var name="x7" ub="1"/><var name="x8" ub="1"/><var name="x9" ub="1"/><var name="x10" ub="1"/><var name="x11" ub="1"/><var name="x12" ub="1"/><var name="x13" ub="1"/><var name="x14" ub="1"/><var name="x15" ub="1"/><var name="x16" ub="1"/><var name="x17" ub="1"/><var name="x18" ub="1"/><var name="x19" ub="1"/><var name="x20" ub="1"/><var name="x21" ub="1"/><var name="x22" ub="1"/><var name="x23" ub="1"/><var name="x24" ub="1"/><var name="x25" ub="1"/><var name="x26" ub="1"/><var name="x27" ub="1"/><var name="x28" ub="1"/><var name="x29" ub="1"/><var name="x30" ub="1"/><var name="x31" ub="1"/><var name="x32" ub="1"/><var name="x33" ub="1"/><var name="x34" ub="1"/><var name="x35" ub="1"/><var name="x36" ub="1"/><var name="x37" ub="1"/><var name="x38" ub="1"/><var name="x39" ub="1"/><var name="x40" ub="1"/></variables><objectives numberOfObjectives="1"><obj maxOrMin="min" name="defObj_x41" numberOfObjCoef="40"><coef idx="0">.6678</coef><coef idx="1">-.7699</coef><coef idx="2">.6536</coef><coef idx="3">-.4263</coef><coef idx="4">.5469</coef><coef idx="5">.6991</coef><coef idx="6">.4764</coef><coef idx="7">-.6822</coef><coef idx="8">-.709</coef><coef idx="9">-.6123</coef><coef idx="10">-.6075</coef><coef idx="11">-.6624</coef><coef idx="12">.3302</coef><coef idx="13">.6541</coef><coef idx="14">-.6579</coef><coef idx="15">-.5587</coef><coef idx="16">-.1261</coef><coef idx="17">.8603</coef><coef idx="18">.1445</coef><coef idx="19">-.773</coef><coef idx="20">.1692</coef><coef idx="21">.8432</coef><coef idx="22">.8133</coef><coef idx="23">.1169</coef><coef idx="24">-.1312</coef><coef idx="25">.9717</coef><coef idx="26">.3126</coef><coef idx="27">.4154</coef><coef idx="28">-1.05e-2</coef><coef idx="29">.4772</coef><coef idx="30">.1875</coef><coef idx="31">.9525</coef><coef idx="32">-.3099</coef><coef idx="33">-.239</coef><coef idx="34">.5059</coef><coef idx="35">.466</coef><coef idx="36">-.334</coef><coef idx="37">.8077</coef><coef idx="38">.3148</coef><coef idx="39">-.4982</coef></obj></objectives><quadraticCoefficients  numberOfQuadraticTerms="205" ><qTerm  idx="-1"  idxOne="0"  idxTwo="16"  coef=".2896"/><qTerm  idx="-1"  idxOne="0"  idxTwo="21"  coef="1.8013"/><qTerm  idx="-1"  idxOne="0"  idxTwo="33"  coef=".288"/><qTerm  idx="-1"  idxOne="0"  idxTwo="36"  coef="1.0054"/><qTerm  idx="-1"  idxOne="1"  idxTwo="3"  coef="-.4767"/><qTerm  idx="-1"  idxOne="1"  idxTwo="8"  coef=".8892"/><qTerm  idx="-1"  idxOne="1"  idxTwo="11"  coef="1.0756"/><qTerm  idx="-1"  idxOne="1"  idxTwo="13"  coef=".3701"/><qTerm  idx="-1"  idxOne="1"  idxTwo="19"  coef="-.9807"/><qTerm  idx="-1"  idxOne="1"  idxTwo="20"  coef="-.6342"/><qTerm  idx="-1"  idxOne="1"  idxTwo="23"  coef="-.2715"/><qTerm  idx="-1"  idxOne="1"  idxTwo="24"  coef=".9367"/><qTerm  idx="-1"  idxOne="1"  idxTwo="29"  coef="-.5283"/><qTerm  idx="-1"  idxOne="1"  idxTwo="35"  coef="-1.8626"/><qTerm  idx="-1"  idxOne="1"  idxTwo="38"  coef="-.3215"/><qTerm  idx="-1"  idxOne="1"  idxTwo="39"  coef="-1.8829"/><qTerm  idx="-1"  idxOne="2"  idxTwo="2"  coef=".327"/><qTerm  idx="-1"  idxOne="2"  idxTwo="6"  coef="-.4357"/><qTerm  idx="-1"  idxOne="2"  idxTwo="8"  coef="1.863"/><qTerm  idx="-1"  idxOne="2"  idxTwo="17"  coef="-.8106"/><qTerm  idx="-1"  idxOne="2"  idxTwo="18"  coef="-.1935"/><qTerm  idx="-1"  idxOne="2"  idxTwo="21"  coef="1.646"/><qTerm  idx="-1"  idxOne="2"  idxTwo="22"  coef="-1.2117"/><qTerm  idx="-1"  idxOne="2"  idxTwo="25"  coef="-1.6292"/><qTerm  idx="-1"  idxOne="2"  idxTwo="27"  coef="1.5268"/><qTerm  idx="-1"  idxOne="2"  idxTwo="28"  coef="-1.9972"/><qTerm  idx="-1"  idxOne="3"  idxTwo="7"  coef="-.4843"/><qTerm  idx="-1"  idxOne="3"  idxTwo="8"  coef="-1.79"/><qTerm  idx="-1"  idxOne="3"  idxTwo="10"  coef="1.6149"/><qTerm  idx="-1"  idxOne="3"  idxTwo="13"  coef="1.4403"/><qTerm  idx="-1"  idxOne="3"  idxTwo="15"  coef="1.9924"/><qTerm  idx="-1"  idxOne="3"  idxTwo="17"  coef="1.9405"/><qTerm  idx="-1"  idxOne="3"  idxTwo="32"  coef="-1.6967"/><qTerm  idx="-1"  idxOne="3"  idxTwo="35"  coef=".7138"/><qTerm  idx="-1"  idxOne="3"  idxTwo="36"  coef="-1.1592"/><qTerm  idx="-1"  idxOne="3"  idxTwo="38"  coef="-.6452"/><qTerm  idx="-1"  idxOne="4"  idxTwo="7"  coef="1.2279"/><qTerm  idx="-1"  idxOne="4"  idxTwo="8"  coef="-.6379"/><qTerm  idx="-1"  idxOne="4"  idxTwo="13"  coef=".9478"/><qTerm  idx="-1"  idxOne="4"  idxTwo="16"  coef="-1.6975"/><qTerm  idx="-1"  idxOne="4"  idxTwo="17"  coef="1.831"/><qTerm  idx="-1"  idxOne="4"  idxTwo="22"  coef="-1.4854"/><qTerm  idx="-1"  idxOne="4"  idxTwo="25"  coef="-1.3537"/><qTerm  idx="-1"  idxOne="4"  idxTwo="28"  coef="1.2891"/><qTerm  idx="-1"  idxOne="4"  idxTwo="29"  coef=".9626"/><qTerm  idx="-1"  idxOne="4"  idxTwo="30"  coef=".4194"/><qTerm  idx="-1"  idxOne="4"  idxTwo="32"  coef="-.5774"/><qTerm  idx="-1"  idxOne="5"  idxTwo="8"  coef="1.0132"/><qTerm  idx="-1"  idxOne="5"  idxTwo="9"  coef="-.2866"/><qTerm  idx="-1"  idxOne="5"  idxTwo="10"  coef="-1.2804"/><qTerm  idx="-1"  idxOne="5"  idxTwo="14"  coef=".4603"/><qTerm  idx="-1"  idxOne="5"  idxTwo="15"  coef=".4833"/><qTerm  idx="-1"  idxOne="5"  idxTwo="19"  coef="-1.344"/><qTerm  idx="-1"  idxOne="5"  idxTwo="21"  coef="5.11e-2"/><qTerm  idx="-1"  idxOne="5"  idxTwo="26"  coef="-.7355"/><qTerm  idx="-1"  idxOne="5"  idxTwo="33"  coef="1.5597"/><qTerm  idx="-1"  idxOne="5"  idxTwo="38"  coef="-1.58"/><qTerm  idx="-1"  idxOne="6"  idxTwo="18"  coef=".388"/><qTerm  idx="-1"  idxOne="6"  idxTwo="27"  coef="-.1738"/><qTerm  idx="-1"  idxOne="6"  idxTwo="29"  coef=".4123"/><qTerm  idx="-1"  idxOne="6"  idxTwo="30"  coef=".8911"/><qTerm  idx="-1"  idxOne="6"  idxTwo="33"  coef="1.3168"/><qTerm  idx="-1"  idxOne="6"  idxTwo="34"  coef="-1.3197"/><qTerm  idx="-1"  idxOne="6"  idxTwo="36"  coef="1.7676"/><qTerm  idx="-1"  idxOne="7"  idxTwo="8"  coef="1.7416"/><qTerm  idx="-1"  idxOne="7"  idxTwo="10"  coef="1.9969"/><qTerm  idx="-1"  idxOne="7"  idxTwo="15"  coef="-1.598"/><qTerm  idx="-1"  idxOne="7"  idxTwo="16"  coef="1.5693"/><qTerm  idx="-1"  idxOne="7"  idxTwo="22"  coef="-.5358"/><qTerm  idx="-1"  idxOne="7"  idxTwo="24"  coef="-.7374"/><qTerm  idx="-1"  idxOne="7"  idxTwo="29"  coef=".411"/><qTerm  idx="-1"  idxOne="7"  idxTwo="32"  coef=".2156"/><qTerm  idx="-1"  idxOne="7"  idxTwo="33"  coef=".9627"/><qTerm  idx="-1"  idxOne="8"  idxTwo="9"  coef="-.1178"/><qTerm  idx="-1"  idxOne="8"  idxTwo="16"  coef="1.2849"/><qTerm  idx="-1"  idxOne="8"  idxTwo="20"  coef="1.3806"/><qTerm  idx="-1"  idxOne="8"  idxTwo="26"  coef="-.1671"/><qTerm  idx="-1"  idxOne="8"  idxTwo="36"  coef="-8.1e-2"/><qTerm  idx="-1"  idxOne="8"  idxTwo="38"  coef=".4695"/><qTerm  idx="-1"  idxOne="9"  idxTwo="13"  coef="-.6752"/><qTerm  idx="-1"  idxOne="9"  idxTwo="17"  coef="1.0889"/><qTerm  idx="-1"  idxOne="9"  idxTwo="22"  coef="-.4771"/><qTerm  idx="-1"  idxOne="9"  idxTwo="23"  coef="-.1742"/><qTerm  idx="-1"  idxOne="9"  idxTwo="24"  coef=".5028"/><qTerm  idx="-1"  idxOne="9"  idxTwo="31"  coef="-.2715"/><qTerm  idx="-1"  idxOne="9"  idxTwo="39"  coef="-.6266"/><qTerm  idx="-1"  idxOne="10"  idxTwo="11"  coef=".4719"/><qTerm  idx="-1"  idxOne="10"  idxTwo="17"  coef=".382"/><qTerm  idx="-1"  idxOne="10"  idxTwo="21"  coef="1.64"/><qTerm  idx="-1"  idxOne="10"  idxTwo="25"  coef=".5152"/><qTerm  idx="-1"  idxOne="10"  idxTwo="27"  coef=".9576"/><qTerm  idx="-1"  idxOne="10"  idxTwo="29"  coef="-1.8284"/><qTerm  idx="-1"  idxOne="10"  idxTwo="33"  coef="-.6707"/><qTerm  idx="-1"  idxOne="10"  idxTwo="35"  coef="1.4182"/><qTerm  idx="-1"  idxOne="11"  idxTwo="13"  coef="-1.3869"/><qTerm  idx="-1"  idxOne="11"  idxTwo="16"  coef="1.5451"/><qTerm  idx="-1"  idxOne="11"  idxTwo="22"  coef="-.7583"/><qTerm  idx="-1"  idxOne="11"  idxTwo="28"  coef="-1.5327"/><qTerm  idx="-1"  idxOne="11"  idxTwo="29"  coef="-.858"/><qTerm  idx="-1"  idxOne="11"  idxTwo="36"  coef="1.9647"/><qTerm  idx="-1"  idxOne="12"  idxTwo="17"  coef="-.5135"/><qTerm  idx="-1"  idxOne="12"  idxTwo="18"  coef="-.1172"/><qTerm  idx="-1"  idxOne="12"  idxTwo="21"  coef="-.5427"/><qTerm  idx="-1"  idxOne="12"  idxTwo="29"  coef=".5248"/><qTerm  idx="-1"  idxOne="12"  idxTwo="31"  coef="9.77e-2"/><qTerm  idx="-1"  idxOne="12"  idxTwo="33"  coef="-.7638"/><qTerm  idx="-1"  idxOne="12"  idxTwo="35"  coef="-.745"/><qTerm  idx="-1"  idxOne="12"  idxTwo="36"  coef="-1.6291"/><qTerm  idx="-1"  idxOne="13"  idxTwo="14"  coef="1.3387"/><qTerm  idx="-1"  idxOne="13"  idxTwo="17"  coef="1.7997"/><qTerm  idx="-1"  idxOne="13"  idxTwo="19"  coef="-1.25"/><qTerm  idx="-1"  idxOne="13"  idxTwo="22"  coef="-.8291"/><qTerm  idx="-1"  idxOne="13"  idxTwo="24"  coef="-.4132"/><qTerm  idx="-1"  idxOne="13"  idxTwo="27"  coef="-1.9481"/><qTerm  idx="-1"  idxOne="13"  idxTwo="28"  coef=".3628"/><qTerm  idx="-1"  idxOne="13"  idxTwo="29"  coef=".6688"/><qTerm  idx="-1"  idxOne="13"  idxTwo="32"  coef="1.09e-2"/><qTerm  idx="-1"  idxOne="13"  idxTwo="37"  coef=".2969"/><qTerm  idx="-1"  idxOne="13"  idxTwo="39"  coef="-1.7606"/><qTerm  idx="-1"  idxOne="14"  idxTwo="23"  coef="-1.1412"/><qTerm  idx="-1"  idxOne="14"  idxTwo="24"  coef="-.7283"/><qTerm  idx="-1"  idxOne="14"  idxTwo="29"  coef=".2453"/><qTerm  idx="-1"  idxOne="14"  idxTwo="30"  coef="-1.866"/><qTerm  idx="-1"  idxOne="14"  idxTwo="37"  coef="1.7754"/><qTerm  idx="-1"  idxOne="15"  idxTwo="16"  coef=".5044"/><qTerm  idx="-1"  idxOne="15"  idxTwo="19"  coef="1.8566"/><qTerm  idx="-1"  idxOne="15"  idxTwo="26"  coef="1.5223"/><qTerm  idx="-1"  idxOne="15"  idxTwo="27"  coef="-.9697"/><qTerm  idx="-1"  idxOne="15"  idxTwo="29"  coef="-1.4488"/><qTerm  idx="-1"  idxOne="15"  idxTwo="32"  coef="-1.6671"/><qTerm  idx="-1"  idxOne="15"  idxTwo="33"  coef="-.1932"/><qTerm  idx="-1"  idxOne="15"  idxTwo="35"  coef="1.3589"/><qTerm  idx="-1"  idxOne="15"  idxTwo="36"  coef=".703"/><qTerm  idx="-1"  idxOne="16"  idxTwo="18"  coef="1.898"/><qTerm  idx="-1"  idxOne="16"  idxTwo="20"  coef=".3588"/><qTerm  idx="-1"  idxOne="16"  idxTwo="23"  coef="-1.2604"/><qTerm  idx="-1"  idxOne="16"  idxTwo="24"  coef="1.209"/><qTerm  idx="-1"  idxOne="16"  idxTwo="25"  coef="-1.7392"/><qTerm  idx="-1"  idxOne="16"  idxTwo="28"  coef="1.0012"/><qTerm  idx="-1"  idxOne="16"  idxTwo="30"  coef=".1906"/><qTerm  idx="-1"  idxOne="16"  idxTwo="31"  coef="-7.39e-2"/><qTerm  idx="-1"  idxOne="16"  idxTwo="36"  coef=".8422"/><qTerm  idx="-1"  idxOne="16"  idxTwo="38"  coef="1.1892"/><qTerm  idx="-1"  idxOne="17"  idxTwo="24"  coef="-1.0622"/><qTerm  idx="-1"  idxOne="17"  idxTwo="26"  coef=".827"/><qTerm  idx="-1"  idxOne="17"  idxTwo="30"  coef="-2.68e-2"/><qTerm  idx="-1"  idxOne="17"  idxTwo="38"  coef="-.8948"/><qTerm  idx="-1"  idxOne="18"  idxTwo="23"  coef="-1.2026"/><qTerm  idx="-1"  idxOne="18"  idxTwo="27"  coef="1.6422"/><qTerm  idx="-1"  idxOne="18"  idxTwo="33"  coef="-.435"/><qTerm  idx="-1"  idxOne="18"  idxTwo="36"  coef="-.1428"/><qTerm  idx="-1"  idxOne="19"  idxTwo="26"  coef="-.868"/><qTerm  idx="-1"  idxOne="19"  idxTwo="28"  coef=".6257"/><qTerm  idx="-1"  idxOne="19"  idxTwo="29"  coef="-1.4341"/><qTerm  idx="-1"  idxOne="19"  idxTwo="31"  coef="-1.8265"/><qTerm  idx="-1"  idxOne="20"  idxTwo="23"  coef="-1.9463"/><qTerm  idx="-1"  idxOne="20"  idxTwo="26"  coef="-1.1612"/><qTerm  idx="-1"  idxOne="20"  idxTwo="27"  coef=".5374"/><qTerm  idx="-1"  idxOne="20"  idxTwo="31"  coef="-1.2066"/><qTerm  idx="-1"  idxOne="20"  idxTwo="34"  coef="-1.9893"/><qTerm  idx="-1"  idxOne="20"  idxTwo="35"  coef="-1.7501"/><qTerm  idx="-1"  idxOne="20"  idxTwo="39"  coef=".9541"/><qTerm  idx="-1"  idxOne="21"  idxTwo="22"  coef=".4996"/><qTerm  idx="-1"  idxOne="21"  idxTwo="23"  coef="-.7874"/><qTerm  idx="-1"  idxOne="21"  idxTwo="25"  coef="-3.55e-2"/><qTerm  idx="-1"  idxOne="21"  idxTwo="32"  coef="3.72e-2"/><qTerm  idx="-1"  idxOne="21"  idxTwo="36"  coef=".9771"/><qTerm  idx="-1"  idxOne="21"  idxTwo="37"  coef="1.9029"/><qTerm  idx="-1"  idxOne="22"  idxTwo="28"  coef="1.1505"/><qTerm  idx="-1"  idxOne="22"  idxTwo="32"  coef=".4025"/><qTerm  idx="-1"  idxOne="23"  idxTwo="26"  coef=".4016"/><qTerm  idx="-1"  idxOne="23"  idxTwo="29"  coef="1.8243"/><qTerm  idx="-1"  idxOne="23"  idxTwo="31"  coef="-1.8053"/><qTerm  idx="-1"  idxOne="23"  idxTwo="35"  coef="1.9976"/><qTerm  idx="-1"  idxOne="23"  idxTwo="38"  coef=".688"/><qTerm  idx="-1"  idxOne="24"  idxTwo="37"  coef="-1.5294"/><qTerm  idx="-1"  idxOne="24"  idxTwo="39"  coef=".7342"/><qTerm  idx="-1"  idxOne="25"  idxTwo="27"  coef="-1.7999"/><qTerm  idx="-1"  idxOne="25"  idxTwo="28"  coef="1.5016"/><qTerm  idx="-1"  idxOne="25"  idxTwo="32"  coef="1.49e-2"/><qTerm  idx="-1"  idxOne="26"  idxTwo="28"  coef="-.4451"/><qTerm  idx="-1"  idxOne="26"  idxTwo="30"  coef=".284"/><qTerm  idx="-1"  idxOne="26"  idxTwo="35"  coef=".5921"/><qTerm  idx="-1"  idxOne="26"  idxTwo="36"  coef="-1.6907"/><qTerm  idx="-1"  idxOne="27"  idxTwo="27"  coef="6.3e-3"/><qTerm  idx="-1"  idxOne="27"  idxTwo="29"  coef="-1.615"/><qTerm  idx="-1"  idxOne="27"  idxTwo="31"  coef="-1.6489"/><qTerm  idx="-1"  idxOne="27"  idxTwo="33"  coef="-.3005"/><qTerm  idx="-1"  idxOne="27"  idxTwo="36"  coef="-1.2375"/><qTerm  idx="-1"  idxOne="27"  idxTwo="39"  coef="-.9223"/><qTerm  idx="-1"  idxOne="28"  idxTwo="33"  coef="1.7027"/><qTerm  idx="-1"  idxOne="28"  idxTwo="34"  coef="-1.3517"/><qTerm  idx="-1"  idxOne="28"  idxTwo="37"  coef="2.07e-2"/><qTerm  idx="-1"  idxOne="29"  idxTwo="32"  coef="-.6248"/><qTerm  idx="-1"  idxOne="29"  idxTwo="33"  coef=".6703"/><qTerm  idx="-1"  idxOne="29"  idxTwo="34"  coef="-.8044"/><qTerm  idx="-1"  idxOne="29"  idxTwo="37"  coef="-1.0687"/><qTerm  idx="-1"  idxOne="30"  idxTwo="37"  coef=".6363"/><qTerm  idx="-1"  idxOne="30"  idxTwo="39"  coef="4.65e-2"/><qTerm  idx="-1"  idxOne="31"  idxTwo="39"  coef="1.6265"/><qTerm  idx="-1"  idxOne="32"  idxTwo="36"  coef="-.3346"/><qTerm  idx="-1"  idxOne="34"  idxTwo="35"  coef="-.9768"/><qTerm  idx="-1"  idxOne="36"  idxTwo="36"  coef=".8444"/><qTerm  idx="-1"  idxOne="36"  idxTwo="39"  coef="5.28e-2"/><qTerm  idx="-1"  idxOne="38"  idxTwo="38"  coef=".9388"/></quadraticCoefficients></instanceData></osil>
